experiments/sat_smt/run/sat-r/results/lucy.res
solved=true
solvingTime=5.623910427093505859375
nActions=8