experiments/sat_smt/run/sat-r/results/lucy.out
Timesteps: 1
s UNSATISFIABLE
real 0.27
user 0.03
sys 0.00
Timesteps: 2
s UNSATISFIABLE
real 0.32
user 0.06
sys 0.01
Timesteps: 3
s UNSATISFIABLE
real 0.42
user 0.11
sys 0.01
Timesteps: 4
s UNSATISFIABLE
real 0.31
user 0.19
sys 0.01
Timesteps: 5
s UNSATISFIABLE
real 0.55
user 0.40
sys 0.01
Timesteps: 6
s UNSATISFIABLE
real 0.93
user 0.74
sys 0.02
Timesteps: 7
s UNSATISFIABLE
real 1.29
user 0.99
sys 0.03
Timesteps: 8
s SATISFIABLE
real 1.41
user 1.14
sys 0.03
